4 
5  05 29 44 59 
6  14 29 44 59 
7  14 29 44 59 
8  14 29 44 59 
9  14 29 44 59 
10  14 29 44 59 
11  14 29 44 59 
12  14 29 44 59 
13  15 30 45 
14  00 15 30 45 
15  00 15 30 45 
16  00 15 30 45 
17  00 15 30 45 
18  00 15 30 45 
19  00 14 29 44 59 
20  14 29 44 59 
21  14 29 44 59 
22  20 35 50 
23  05 
0 
